p tw 266 15961 1 
1 2 
1 3 
1 4 
1 5 
1 6 
1 7 
1 8 
1 9 
1 10 
1 11 
1 12 
1 13 
1 14 
1 15 
1 16 
1 17 
1 18 
1 19 
1 20 
1 21 
1 22 
1 23 
1 24 
1 25 
1 26 
1 27 
1 28 
1 29 
1 30 
1 31 
1 32 
1 33 
1 34 
1 35 
1 36 
1 37 
1 38 
1 39 
1 40 
1 41 
1 42 
1 43 
1 44 
1 45 
1 46 
1 47 
1 48 
1 49 
1 50 
1 51 
1 52 
1 53 
1 54 
1 55 
1 56 
1 57 
1 58 
1 59 
1 60 
1 61 
1 62 
1 63 
1 64 
1 65 
1 66 
1 67 
1 68 
1 69 
1 70 
1 71 
1 72 
1 73 
1 74 
1 75 
1 76 
1 77 
1 78 
1 79 
1 80 
1 81 
1 82 
1 83 
1 84 
1 85 
1 86 
1 87 
1 88 
1 89 
1 90 
1 91 
1 92 
1 93 
1 94 
1 95 
1 96 
1 97 
1 98 
1 99 
1 100 
1 101 
1 102 
1 103 
1 104 
1 105 
1 106 
1 107 
1 108 
1 109 
1 110 
1 111 
1 112 
1 113 
1 114 
1 115 
1 116 
1 117 
1 118 
1 119 
1 120 
1 121 
1 122 
1 123 
1 124 
1 125 
1 126 
1 127 
1 128 
1 129 
1 130 
1 131 
1 132 
1 133 
2 134 
2 135 
2 136 
2 137 
2 138 
2 139 
2 140 
2 141 
2 142 
2 143 
2 144 
2 145 
2 146 
2 147 
2 148 
2 149 
2 150 
2 151 
2 152 
2 153 
2 154 
2 155 
2 156 
2 157 
2 158 
2 159 
2 160 
2 161 
2 162 
2 163 
2 164 
2 165 
2 166 
2 167 
2 168 
2 169 
2 170 
2 171 
2 172 
2 173 
2 174 
2 175 
2 176 
2 177 
2 178 
2 179 
2 180 
2 181 
2 182 
2 183 
2 184 
2 185 
2 186 
2 187 
2 188 
2 189 
2 190 
2 191 
2 192 
2 193 
2 194 
2 195 
2 196 
2 197 
2 198 
2 199 
2 200 
2 201 
2 202 
2 203 
2 204 
2 205 
2 206 
2 207 
2 208 
2 209 
2 210 
2 211 
2 212 
2 213 
2 214 
2 215 
2 216 
2 217 
2 218 
2 219 
2 220 
2 221 
2 222 
2 223 
2 224 
2 225 
2 226 
2 227 
2 228 
2 229 
2 230 
2 231 
2 232 
2 233 
2 234 
2 235 
2 236 
2 237 
2 238 
2 239 
2 240 
2 241 
2 242 
2 243 
2 244 
2 245 
2 246 
2 247 
2 248 
2 249 
2 250 
2 251 
2 252 
2 253 
2 254 
2 255 
2 256 
2 257 
2 258 
2 259 
2 260 
2 261 
2 262 
2 263 
2 264 
2 265 
2 266 
1 135 
1 146 
1 157 
1 168 
1 179 
1 190 
1 201 
1 212 
1 223 
1 234 
1 245 
1 256 
2 136 
2 147 
2 158 
2 169 
2 180 
2 191 
2 202 
2 213 
2 224 
2 235 
2 246 
2 256 
3 137 
3 148 
3 159 
3 170 
3 181 
3 192 
3 203 
3 214 
3 225 
3 236 
3 247 
3 256 
4 138 
4 149 
4 160 
4 171 
4 182 
4 193 
4 204 
4 215 
4 226 
4 237 
4 248 
4 256 
5 139 
5 150 
5 161 
5 172 
5 183 
5 194 
5 205 
5 216 
5 227 
5 238 
5 249 
5 256 
6 140 
6 151 
6 162 
6 173 
6 184 
6 195 
6 206 
6 217 
6 228 
6 239 
6 250 
6 256 
7 141 
7 152 
7 163 
7 174 
7 185 
7 196 
7 207 
7 218 
7 229 
7 240 
7 251 
7 256 
8 142 
8 153 
8 164 
8 175 
8 186 
8 197 
8 208 
8 219 
8 230 
8 241 
8 252 
8 256 
9 143 
9 154 
9 165 
9 176 
9 187 
9 198 
9 209 
9 220 
9 231 
9 242 
9 253 
9 256 
10 144 
10 155 
10 166 
10 177 
10 188 
10 199 
10 210 
10 221 
10 232 
10 243 
10 254 
10 256 
11 145 
11 156 
11 167 
11 178 
11 189 
11 200 
11 211 
11 222 
11 233 
11 244 
11 255 
11 256 
12 135 
12 152 
12 164 
12 176 
12 188 
12 200 
12 202 
12 214 
12 226 
12 238 
12 250 
12 257 
13 136 
13 146 
13 163 
13 172 
13 182 
13 198 
13 203 
13 221 
13 228 
13 241 
13 255 
13 257 
14 137 
14 147 
14 157 
14 175 
14 184 
14 194 
14 210 
14 215 
14 233 
14 240 
14 253 
14 257 
15 138 
15 155 
15 159 
15 168 
15 187 
15 196 
15 206 
15 222 
15 227 
15 235 
15 252 
15 257 
16 139 
16 154 
16 167 
16 171 
16 179 
16 199 
16 208 
16 218 
16 224 
16 239 
16 247 
16 257 
17 140 
17 149 
17 166 
17 169 
17 183 
17 190 
17 211 
17 220 
17 230 
17 236 
17 251 
17 257 
18 141 
18 153 
18 161 
18 178 
18 181 
18 195 
18 201 
18 213 
18 232 
18 242 
18 248 
18 257 
19 142 
19 150 
19 165 
19 173 
19 180 
19 193 
19 207 
19 212 
19 225 
19 244 
19 254 
19 257 
20 143 
20 156 
20 162 
20 177 
20 185 
20 192 
20 205 
20 219 
20 223 
20 237 
20 246 
20 257 
21 144 
21 148 
21 158 
21 174 
21 189 
21 197 
21 204 
21 217 
21 231 
21 234 
21 249 
21 257 
22 145 
22 151 
22 160 
22 170 
22 186 
22 191 
22 209 
22 216 
22 229 
22 243 
22 245 
22 257 
23 135 
23 153 
23 165 
23 177 
23 189 
23 191 
23 203 
23 215 
23 227 
23 239 
23 251 
23 258 
24 136 
24 152 
24 161 
24 171 
24 187 
24 192 
24 210 
24 217 
24 230 
24 244 
24 245 
24 258 
25 137 
25 146 
25 164 
25 173 
25 183 
25 199 
25 204 
25 222 
25 229 
25 242 
25 246 
25 258 
26 138 
26 148 
26 157 
26 176 
26 185 
26 195 
26 211 
26 216 
26 224 
26 241 
26 254 
26 258 
27 139 
27 156 
27 160 
27 168 
27 188 
27 197 
27 207 
27 213 
27 228 
27 236 
27 253 
27 258 
28 140 
28 155 
28 158 
28 172 
28 179 
28 200 
28 209 
28 219 
28 225 
28 240 
28 248 
28 258 
29 141 
29 150 
29 167 
29 170 
29 184 
29 190 
29 202 
29 221 
29 231 
29 237 
29 252 
29 258 
30 142 
30 154 
30 162 
30 169 
30 182 
30 196 
30 201 
30 214 
30 233 
30 243 
30 249 
30 258 
31 143 
31 151 
31 166 
31 174 
31 181 
31 194 
31 208 
31 212 
31 226 
31 235 
31 255 
31 258 
32 144 
32 147 
32 163 
32 178 
32 186 
32 193 
32 206 
32 220 
32 223 
32 238 
32 247 
32 258 
33 145 
33 149 
33 159 
33 175 
33 180 
33 198 
33 205 
33 218 
33 232 
33 234 
33 250 
33 258 
34 135 
34 154 
34 166 
34 178 
34 180 
34 192 
34 204 
34 216 
34 228 
34 240 
34 252 
34 259 
35 136 
35 150 
35 160 
35 176 
35 181 
35 199 
35 206 
35 219 
35 233 
35 234 
35 251 
35 259 
36 137 
36 153 
36 162 
36 172 
36 188 
36 193 
36 211 
36 218 
36 231 
36 235 
36 245 
36 259 
37 138 
37 146 
37 165 
37 174 
37 184 
37 200 
37 205 
37 213 
37 230 
37 243 
37 247 
37 259 
38 139 
38 149 
38 157 
38 177 
38 186 
38 196 
38 202 
38 217 
38 225 
38 242 
38 255 
38 259 
39 140 
39 147 
39 161 
39 168 
39 189 
39 198 
39 208 
39 214 
39 229 
39 237 
39 254 
39 259 
40 141 
40 156 
40 159 
40 173 
40 179 
40 191 
40 210 
40 220 
40 226 
40 241 
40 249 
40 259 
41 142 
41 151 
41 158 
41 171 
41 185 
41 190 
41 203 
41 222 
41 232 
41 238 
41 253 
41 259 
42 143 
42 155 
42 163 
42 170 
42 183 
42 197 
42 201 
42 215 
42 224 
42 244 
42 250 
42 259 
43 144 
43 152 
43 167 
43 175 
43 182 
43 195 
43 209 
43 212 
43 227 
43 236 
43 246 
43 259 
44 145 
44 148 
44 164 
44 169 
44 187 
44 194 
44 207 
44 221 
44 223 
44 239 
44 248 
44 259 
45 135 
45 155 
45 167 
45 169 
45 181 
45 193 
45 205 
45 217 
45 229 
45 241 
45 253 
45 260 
46 136 
46 149 
46 165 
46 170 
46 188 
46 195 
46 208 
46 222 
46 223 
46 240 
46 249 
46 260 
47 137 
47 151 
47 161 
47 177 
47 182 
47 200 
47 207 
47 220 
47 224 
47 234 
47 252 
47 260 
48 138 
48 154 
48 163 
48 173 
48 189 
48 194 
48 202 
48 219 
48 232 
48 236 
48 245 
48 260 
49 139 
49 146 
49 166 
49 175 
49 185 
49 191 
49 206 
49 214 
49 231 
49 244 
49 248 
49 260 
50 140 
50 150 
50 157 
50 178 
50 187 
50 197 
50 203 
50 218 
50 226 
50 243 
50 246 
50 260 
51 141 
51 148 
51 162 
51 168 
51 180 
51 199 
51 209 
51 215 
51 230 
51 238 
51 255 
51 260 
52 142 
52 147 
52 160 
52 174 
52 179 
52 192 
52 211 
52 221 
52 227 
52 242 
52 250 
52 260 
53 143 
53 152 
53 159 
53 172 
53 186 
53 190 
53 204 
53 213 
53 233 
53 239 
53 254 
53 260 
54 144 
54 156 
54 164 
54 171 
54 184 
54 198 
54 201 
54 216 
54 225 
54 235 
54 251 
54 260 
55 145 
55 153 
55 158 
55 176 
55 183 
55 196 
55 210 
55 212 
55 228 
55 237 
55 247 
55 260 
56 135 
56 156 
56 158 
56 170 
56 182 
56 194 
56 206 
56 218 
56 230 
56 242 
56 254 
56 261 
57 136 
57 154 
57 159 
57 177 
57 184 
57 197 
57 211 
57 212 
57 229 
57 238 
57 248 
57 261 
58 137 
58 150 
58 166 
58 171 
58 189 
58 196 
58 209 
58 213 
58 223 
58 241 
58 250 
58 261 
59 138 
59 152 
59 162 
59 178 
59 183 
59 191 
59 208 
59 221 
59 225 
59 234 
59 253 
59 261 
60 139 
60 155 
60 164 
60 174 
60 180 
60 195 
60 203 
60 220 
60 233 
60 237 
60 245 
60 261 
61 140 
61 146 
61 167 
61 176 
61 186 
61 192 
61 207 
61 215 
61 232 
61 235 
61 249 
61 261 
62 141 
62 151 
62 157 
62 169 
62 188 
62 198 
62 204 
62 219 
62 227 
62 244 
62 247 
62 261 
63 142 
63 149 
63 163 
63 168 
63 181 
63 200 
63 210 
63 216 
63 231 
63 239 
63 246 
63 261 
64 143 
64 148 
64 161 
64 175 
64 179 
64 193 
64 202 
64 222 
64 228 
64 243 
64 251 
64 261 
65 144 
65 153 
65 160 
65 173 
65 187 
65 190 
65 205 
65 214 
65 224 
65 240 
65 255 
65 261 
66 145 
66 147 
66 165 
66 172 
66 185 
66 199 
66 201 
66 217 
66 226 
66 236 
66 252 
66 261 
67 135 
67 147 
67 159 
67 171 
67 183 
67 195 
67 207 
67 219 
67 231 
67 243 
67 255 
67 262 
68 136 
68 148 
68 166 
68 173 
68 186 
68 200 
68 201 
68 218 
68 227 
68 237 
68 253 
68 262 
69 137 
69 155 
69 160 
69 178 
69 185 
69 198 
69 202 
69 212 
69 230 
69 239 
69 249 
69 262 
70 138 
70 151 
70 167 
70 172 
70 180 
70 197 
70 210 
70 214 
70 223 
70 242 
70 251 
70 262 
71 139 
71 153 
71 163 
71 169 
71 184 
71 192 
71 209 
71 222 
71 226 
71 234 
71 254 
71 262 
72 140 
72 156 
72 165 
72 175 
72 181 
72 196 
72 204 
72 221 
72 224 
72 238 
72 245 
72 262 
73 141 
73 146 
73 158 
73 177 
73 187 
73 193 
73 208 
73 216 
73 233 
73 236 
73 250 
73 262 
74 142 
74 152 
74 157 
74 170 
74 189 
74 199 
74 205 
74 220 
74 228 
74 235 
74 248 
74 262 
75 143 
75 150 
75 164 
75 168 
75 182 
75 191 
75 211 
75 217 
75 232 
75 240 
75 247 
75 262 
76 144 
76 149 
76 162 
76 176 
76 179 
76 194 
76 203 
76 213 
76 229 
76 244 
76 252 
76 262 
77 145 
77 154 
77 161 
77 174 
77 188 
77 190 
77 206 
77 215 
77 225 
77 241 
77 246 
77 262 
78 135 
78 148 
78 160 
78 172 
78 184 
78 196 
78 208 
78 220 
78 232 
78 244 
78 246 
78 263 
79 136 
79 155 
79 162 
79 175 
79 189 
79 190 
79 207 
79 216 
79 226 
79 242 
79 247 
79 263 
80 137 
80 149 
80 167 
80 174 
80 187 
80 191 
80 201 
80 219 
80 228 
80 238 
80 254 
80 263 
81 138 
81 156 
81 161 
81 169 
81 186 
81 199 
81 203 
81 212 
81 231 
81 240 
81 250 
81 263 
82 139 
82 152 
82 158 
82 173 
82 181 
82 198 
82 211 
82 215 
82 223 
82 243 
82 252 
82 263 
83 140 
83 154 
83 164 
83 170 
83 185 
83 193 
83 210 
83 213 
83 227 
83 234 
83 255 
83 263 
84 141 
84 147 
84 166 
84 176 
84 182 
84 197 
84 205 
84 222 
84 225 
84 239 
84 245 
84 263 
85 142 
85 146 
85 159 
85 178 
85 188 
85 194 
85 209 
85 217 
85 224 
85 237 
85 251 
85 263 
86 143 
86 153 
86 157 
86 171 
86 180 
86 200 
86 206 
86 221 
86 229 
86 236 
86 249 
86 263 
87 144 
87 151 
87 165 
87 168 
87 183 
87 192 
87 202 
87 218 
87 233 
87 241 
87 248 
87 263 
88 145 
88 150 
88 163 
88 177 
88 179 
88 195 
88 204 
88 214 
88 230 
88 235 
88 253 
88 263 
89 135 
89 149 
89 161 
89 173 
89 185 
89 197 
89 209 
89 221 
89 233 
89 235 
89 247 
89 264 
90 136 
90 151 
90 164 
90 178 
90 179 
90 196 
90 205 
90 215 
90 231 
90 236 
90 254 
90 264 
91 137 
91 156 
91 163 
91 176 
91 180 
91 190 
91 208 
91 217 
91 227 
91 243 
91 248 
91 264 
92 138 
92 150 
92 158 
92 175 
92 188 
92 192 
92 201 
92 220 
92 229 
92 239 
92 255 
92 264 
93 139 
93 147 
93 162 
93 170 
93 187 
93 200 
93 204 
93 212 
93 232 
93 241 
93 251 
93 264 
94 140 
94 153 
94 159 
94 174 
94 182 
94 199 
94 202 
94 216 
94 223 
94 244 
94 253 
94 264 
95 141 
95 155 
95 165 
95 171 
95 186 
95 194 
95 211 
95 214 
95 228 
95 234 
95 246 
95 264 
96 142 
96 148 
96 167 
96 177 
96 183 
96 198 
96 206 
96 213 
96 226 
96 240 
96 245 
96 264 
97 143 
97 146 
97 160 
97 169 
97 189 
97 195 
97 210 
97 218 
97 225 
97 238 
97 252 
97 264 
98 144 
98 154 
98 157 
98 172 
98 181 
98 191 
98 207 
98 222 
98 230 
98 237 
98 250 
98 264 
99 145 
99 152 
99 166 
99 168 
99 184 
99 193 
99 203 
99 219 
99 224 
99 242 
99 249 
99 264 
100 135 
100 150 
100 162 
100 174 
100 186 
100 198 
100 210 
100 222 
100 224 
100 236 
100 248 
100 265 
101 136 
101 153 
101 167 
101 168 
101 185 
101 194 
101 204 
101 220 
101 225 
101 243 
101 250 
101 265 
102 137 
102 152 
102 165 
102 169 
102 179 
102 197 
102 206 
102 216 
102 232 
102 237 
102 255 
102 265 
103 138 
103 147 
103 164 
103 177 
103 181 
103 190 
103 209 
103 218 
103 228 
103 244 
103 249 
103 265 
104 139 
104 151 
104 159 
104 176 
104 189 
104 193 
104 201 
104 221 
104 230 
104 240 
104 246 
104 265 
105 140 
105 148 
105 163 
105 171 
105 188 
105 191 
105 205 
105 212 
105 233 
105 242 
105 252 
105 265 
106 141 
106 154 
106 160 
106 175 
106 183 
106 200 
106 203 
106 217 
106 223 
106 235 
106 254 
106 265 
107 142 
107 156 
107 166 
107 172 
107 187 
107 195 
107 202 
107 215 
107 229 
107 234 
107 247 
107 265 
108 143 
108 149 
108 158 
108 178 
108 184 
108 199 
108 207 
108 214 
108 227 
108 241 
108 245 
108 265 
109 144 
109 146 
109 161 
109 170 
109 180 
109 196 
109 211 
109 219 
109 226 
109 239 
109 253 
109 265 
110 145 
110 155 
110 157 
110 173 
110 182 
110 192 
110 208 
110 213 
110 231 
110 238 
110 251 
110 265 
111 135 
111 151 
111 163 
111 175 
111 187 
111 199 
111 211 
111 213 
111 225 
111 237 
111 249 
111 266 
112 136 
112 156 
112 157 
112 174 
112 183 
112 193 
112 209 
112 214 
112 232 
112 239 
112 252 
112 266 
113 137 
113 154 
113 158 
113 168 
113 186 
113 195 
113 205 
113 221 
113 226 
113 244 
113 251 
113 266 
114 138 
114 153 
114 166 
114 170 
114 179 
114 198 
114 207 
114 217 
114 233 
114 238 
114 246 
114 266 
115 139 
115 148 
115 165 
115 178 
115 182 
115 190 
115 210 
115 219 
115 229 
115 235 
115 250 
115 266 
116 140 
116 152 
116 160 
116 177 
116 180 
116 194 
116 201 
116 222 
116 231 
116 241 
116 247 
116 266 
117 141 
117 149 
117 164 
117 172 
117 189 
117 192 
117 206 
117 212 
117 224 
117 243 
117 253 
117 266 
118 142 
118 155 
118 161 
118 176 
118 184 
118 191 
118 204 
118 218 
118 223 
118 236 
118 255 
118 266 
119 143 
119 147 
119 167 
119 173 
119 188 
119 196 
119 203 
119 216 
119 230 
119 234 
119 248 
119 266 
120 144 
120 150 
120 159 
120 169 
120 185 
120 200 
120 208 
120 215 
120 228 
120 242 
120 245 
120 266 
121 145 
121 146 
121 162 
121 171 
121 181 
121 197 
121 202 
121 220 
121 227 
121 240 
121 254 
121 266 
122 134 
122 135 
122 136 
122 137 
122 138 
122 139 
122 140 
122 141 
122 142 
122 143 
122 144 
122 145 
123 134 
123 146 
123 147 
123 148 
123 149 
123 150 
123 151 
123 152 
123 153 
123 154 
123 155 
123 156 
124 134 
124 157 
124 158 
124 159 
124 160 
124 161 
124 162 
124 163 
124 164 
124 165 
124 166 
124 167 
125 134 
125 168 
125 169 
125 170 
125 171 
125 172 
125 173 
125 174 
125 175 
125 176 
125 177 
125 178 
126 134 
126 179 
126 180 
126 181 
126 182 
126 183 
126 184 
126 185 
126 186 
126 187 
126 188 
126 189 
127 134 
127 190 
127 191 
127 192 
127 193 
127 194 
127 195 
127 196 
127 197 
127 198 
127 199 
127 200 
128 134 
128 201 
128 202 
128 203 
128 204 
128 205 
128 206 
128 207 
128 208 
128 209 
128 210 
128 211 
129 134 
129 212 
129 213 
129 214 
129 215 
129 216 
129 217 
129 218 
129 219 
129 220 
129 221 
129 222 
130 134 
130 223 
130 224 
130 225 
130 226 
130 227 
130 228 
130 229 
130 230 
130 231 
130 232 
130 233 
131 134 
131 234 
131 235 
131 236 
131 237 
131 238 
131 239 
131 240 
131 241 
131 242 
131 243 
131 244 
132 134 
132 245 
132 246 
132 247 
132 248 
132 249 
132 250 
132 251 
132 252 
132 253 
132 254 
132 255 
133 134 
133 256 
133 257 
133 258 
133 259 
133 260 
133 261 
133 262 
133 263 
133 264 
133 265 
133 266 
